
Gurobi 7.0.2 (win64, Python) logging started 10/11/17 08:00:44


Gurobi 7.0.2 (win64, Python) logging started 10/14/17 13:14:24


Gurobi 7.0.2 (win64, Python) logging started 10/14/17 13:15:40


Gurobi 7.0.2 (win64, Python) logging started 10/14/17 13:16:06


Gurobi 7.0.2 (win64, Python) logging started 10/14/17 13:16:44


Gurobi 7.0.2 (win64, Python) logging started 10/14/17 13:17:33


Gurobi 7.0.2 (win64, Python) logging started 10/14/17 13:18:12


Gurobi 7.0.2 (win64, Python) logging started 10/14/17 13:18:37


Gurobi 7.0.2 (win64, Python) logging started 10/14/17 13:18:57


Gurobi 7.0.2 (win64, Python) logging started 10/14/17 13:19:58


Gurobi 7.0.2 (win64, Python) logging started 10/14/17 13:20:33


Gurobi 7.0.2 (win64, Python) logging started 10/14/17 13:23:19


Gurobi 7.0.2 (win64, Python) logging started 10/14/17 13:26:33


Gurobi 7.0.2 (win64, Python) logging started 10/14/17 13:27:25


Gurobi 7.0.2 (win64, Python) logging started 10/14/17 13:28:16


Gurobi 7.0.2 (win64, Python) logging started 10/14/17 13:28:37


Gurobi 7.0.2 (win64, Python) logging started 10/14/17 13:29:23


Gurobi 7.0.2 (win64, Python) logging started 10/16/17 14:34:15


Gurobi 7.0.2 (win64, Python) logging started 10/16/17 14:35:15


Gurobi 7.0.2 (win64, Python) logging started 10/18/17 17:45:42


Gurobi 7.0.2 (win64, Python) logging started 10/18/17 17:47:32


Gurobi 7.0.2 (win64, Python) logging started 10/18/17 18:10:03


Gurobi 7.0.2 (win64, Python) logging started 10/18/17 18:10:45


Gurobi 7.0.2 (win64, Python) logging started 10/22/17 23:26:08


Gurobi 7.0.2 (win64, Python) logging started 10/22/17 23:26:26


Gurobi 7.0.2 (win64, Python) logging started 10/22/17 23:48:24


Gurobi 7.0.2 (win64, Python) logging started 10/23/17 06:41:25


Gurobi 7.0.2 (win64, Python) logging started 10/23/17 06:41:42


Gurobi 7.0.2 (win64, Python) logging started 10/29/17 20:35:17


Gurobi 7.0.2 (win64, Python) logging started 10/29/17 20:43:58


Gurobi 7.0.2 (win64, Python) logging started 10/29/17 20:45:48


Gurobi 7.0.2 (win64, Python) logging started 10/29/17 20:46:26


Gurobi 7.0.2 (win64, Python) logging started 10/29/17 20:47:28


Gurobi 7.0.2 (win64, Python) logging started 10/29/17 20:52:11


Gurobi 7.0.2 (win64, Python) logging started 10/29/17 20:52:34


Gurobi 7.0.2 (win64, Python) logging started 10/29/17 20:53:44


Gurobi 7.0.2 (win64, Python) logging started 10/29/17 20:54:32


Gurobi 7.0.2 (win64, Python) logging started 10/29/17 21:59:55


Gurobi 7.0.2 (win64, Python) logging started 10/29/17 22:01:15


Gurobi 7.0.2 (win64, Python) logging started 10/29/17 22:02:26


Gurobi 7.0.2 (win64, Python) logging started 10/29/17 22:04:42


Gurobi 7.0.2 (win64, Python) logging started 10/29/17 22:06:24


Gurobi 7.0.2 (win64, Python) logging started 10/29/17 22:07:47


Gurobi 7.0.2 (win64, Python) logging started 10/29/17 22:09:16


Gurobi 7.0.2 (win64, Python) logging started 10/29/17 22:10:41


Gurobi 7.0.2 (win64, Python) logging started 10/29/17 22:13:18


Gurobi 7.0.2 (win64, Python) logging started 10/29/17 22:16:20


Gurobi 7.0.2 (win64, Python) logging started 10/29/17 22:16:41


Gurobi 7.0.2 (win64, Python) logging started 10/29/17 22:20:00


Gurobi 7.0.2 (win64, Python) logging started 10/29/17 22:41:22


Gurobi 7.0.2 (win64, Python) logging started 10/29/17 22:43:05


Gurobi 7.0.2 (win64, Python) logging started 10/29/17 22:43:48


Gurobi 7.0.2 (win64, Python) logging started 10/29/17 22:45:18


Gurobi 7.0.2 (win64, Python) logging started 10/29/17 22:45:50


Gurobi 7.0.2 (win64, Python) logging started 10/29/17 22:50:47


Gurobi 7.0.2 (win64, Python) logging started 10/29/17 22:53:02


Gurobi 7.0.2 (win64, Python) logging started 10/29/17 22:55:40


Gurobi 7.0.2 (win64, Python) logging started 10/29/17 22:56:29


Gurobi 7.0.2 (win64, Python) logging started 10/29/17 22:57:14


Gurobi 7.0.2 (win64, Python) logging started 10/29/17 22:57:50


Gurobi 7.0.2 (win64, Python) logging started 10/29/17 22:58:49


Gurobi 7.0.2 (win64, Python) logging started 10/29/17 22:59:13


Gurobi 7.0.2 (win64, Python) logging started 10/29/17 23:17:16


Gurobi 7.0.2 (win64, Python) logging started 10/29/17 23:41:46


Gurobi 7.0.2 (win64, Python) logging started 10/29/17 23:44:26


Gurobi 7.0.2 (win64, Python) logging started 10/29/17 23:46:56


Gurobi 7.0.2 (win64, Python) logging started 10/29/17 23:48:10


Gurobi 7.0.2 (win64, Python) logging started 10/29/17 23:52:20


Gurobi 7.0.2 (win64, Python) logging started 10/29/17 23:52:57


Gurobi 7.0.2 (win64, Python) logging started 10/29/17 23:55:24


Gurobi 7.0.2 (win64, Python) logging started 10/29/17 23:55:46


Gurobi 7.0.2 (win64, Python) logging started 10/29/17 23:57:39


Gurobi 7.0.2 (win64, Python) logging started 10/29/17 23:58:53


Gurobi 7.0.2 (win64, Python) logging started 10/30/17 00:03:38


Gurobi 7.0.2 (win64, Python) logging started 10/30/17 00:04:34


Gurobi 7.0.2 (win64, Python) logging started 10/30/17 00:06:15


Gurobi 7.0.2 (win64, Python) logging started 10/30/17 00:07:19


Gurobi 7.0.2 (win64, Python) logging started 10/30/17 00:08:19


Gurobi 7.0.2 (win64, Python) logging started 10/30/17 00:09:31


Gurobi 7.0.2 (win64, Python) logging started 10/30/17 00:10:36


Gurobi 7.0.2 (win64, Python) logging started 10/30/17 00:11:50


Gurobi 7.0.2 (win64, Python) logging started 10/30/17 08:27:54


Gurobi 7.0.2 (win64, Python) logging started 10/30/17 08:46:03


Gurobi 7.0.2 (win64, Python) logging started 10/30/17 08:47:49


Gurobi 7.0.2 (win64, Python) logging started 10/30/17 08:48:58


Gurobi 7.0.2 (win64, Python) logging started 10/30/17 08:50:24


Gurobi 7.0.2 (win64, Python) logging started 10/31/17 15:18:06


Gurobi 7.0.2 (win64, Python) logging started 10/31/17 15:18:33


Gurobi 7.0.2 (win64, Python) logging started 10/31/17 15:18:57


Gurobi 7.0.2 (win64, Python) logging started 10/31/17 15:19:40


Gurobi 7.0.2 (win64, Python) logging started 10/31/17 15:20:13


Gurobi 7.0.2 (win64, Python) logging started 11/02/17 12:56:15


Gurobi 7.0.2 (win64, Python) logging started 11/02/17 12:57:45


Gurobi 7.0.2 (win64, Python) logging started 11/02/17 14:47:06


Gurobi 7.0.2 (win64, Python) logging started 11/02/17 14:48:01


Gurobi 7.0.2 (win64, Python) logging started 11/02/17 14:48:37


Gurobi 7.0.2 (win64, Python) logging started 11/02/17 14:49:05


Gurobi 7.0.2 (win64, Python) logging started 11/02/17 15:00:28


Gurobi 7.0.2 (win64, Python) logging started 11/02/17 15:01:12


Gurobi 7.0.2 (win64, Python) logging started 11/02/17 15:05:01


Gurobi 7.0.2 (win64, Python) logging started 11/02/17 15:05:19


Gurobi 7.0.2 (win64, Python) logging started 11/02/17 15:09:02


Gurobi 7.0.2 (win64, Python) logging started 11/02/17 15:11:26


Gurobi 7.0.2 (win64, Python) logging started 11/02/17 15:13:08


Gurobi 7.0.2 (win64, Python) logging started 11/02/17 15:15:04


Gurobi 7.0.2 (win64, Python) logging started 11/02/17 15:17:09


Gurobi 7.0.2 (win64, Python) logging started 11/02/17 15:20:15


Gurobi 7.0.2 (win64, Python) logging started 11/02/17 17:31:58


Gurobi 7.0.2 (win64, Python) logging started 11/02/17 17:33:30


Gurobi 7.0.2 (win64, Python) logging started 11/02/17 17:35:32


Gurobi 7.0.2 (win64, Python) logging started 11/02/17 17:36:38


Gurobi 7.0.2 (win64, Python) logging started 11/02/17 17:38:06


Gurobi 7.0.2 (win64, Python) logging started 11/02/17 17:39:03


Gurobi 7.0.2 (win64, Python) logging started 11/02/17 17:39:56


Gurobi 7.0.2 (win64, Python) logging started 11/02/17 17:51:47


Gurobi 7.0.2 (win64, Python) logging started 11/02/17 17:53:58


Gurobi 7.0.2 (win64, Python) logging started 11/02/17 17:56:24


Gurobi 7.0.2 (win64, Python) logging started 11/02/17 17:57:57


Gurobi 7.0.2 (win64, Python) logging started 11/02/17 18:03:48


Gurobi 7.0.2 (win64, Python) logging started 11/02/17 18:05:07


Gurobi 7.0.2 (win64, Python) logging started 11/02/17 18:06:10


Gurobi 7.0.2 (win64, Python) logging started 11/02/17 18:06:50


Gurobi 7.0.2 (win64, Python) logging started 11/02/17 18:16:36


Gurobi 7.0.2 (win64, Python) logging started 11/02/17 18:19:35


Gurobi 7.0.2 (win64, Python) logging started 11/02/17 18:20:23


Gurobi 7.0.2 (win64, Python) logging started 11/02/17 18:21:37


Gurobi 7.0.2 (win64, Python) logging started 11/03/17 16:33:53


Gurobi 7.0.2 (win64, Python) logging started 11/03/17 16:35:25


Gurobi 7.0.2 (win64, Python) logging started 11/05/17 07:19:38


Gurobi 7.0.2 (win64, Python) logging started 11/05/17 07:30:05


Gurobi 7.0.2 (win64, Python) logging started 11/05/17 07:38:44


Gurobi 7.0.2 (win64, Python) logging started 11/05/17 07:39:36


Gurobi 7.0.2 (win64, Python) logging started 11/05/17 07:41:00


Gurobi 7.0.2 (win64, Python) logging started 11/05/17 07:46:38


Gurobi 7.0.2 (win64, Python) logging started 11/05/17 07:47:46


Gurobi 7.0.2 (win64, Python) logging started 11/05/17 07:50:01


Gurobi 7.0.2 (win64, Python) logging started 11/05/17 07:50:54


Gurobi 7.0.2 (win64, Python) logging started 11/05/17 08:03:38


Gurobi 7.0.2 (win64, Python) logging started 11/05/17 08:12:15


Gurobi 7.0.2 (win64, Python) logging started 11/05/17 08:13:34


Gurobi 7.0.2 (win64, Python) logging started 11/05/17 08:13:54


Gurobi 7.0.2 (win64, Python) logging started 11/05/17 08:45:14


Gurobi 7.0.2 (win64, Python) logging started 11/05/17 08:48:26


Gurobi 7.0.2 (win64, Python) logging started 11/05/17 08:57:37


Gurobi 7.0.2 (win64, Python) logging started 11/05/17 09:00:06


Gurobi 7.0.2 (win64, Python) logging started 11/05/17 09:01:04


Gurobi 7.0.2 (win64, Python) logging started 11/05/17 17:52:30


Gurobi 7.0.2 (win64, Python) logging started 11/05/17 20:07:35


Gurobi 7.0.2 (win64, Python) logging started 11/05/17 20:09:29


Gurobi 7.0.2 (win64, Python) logging started 11/05/17 20:11:23


Gurobi 7.0.2 (win64, Python) logging started 11/05/17 20:12:26


Gurobi 7.0.2 (win64, Python) logging started 11/05/17 20:22:44


Gurobi 7.0.2 (win64, Python) logging started 11/05/17 20:24:16


Gurobi 7.0.2 (win64, Python) logging started 11/06/17 12:24:16


Gurobi 7.0.2 (win64, Python) logging started 11/06/17 12:27:11


Gurobi 7.0.2 (win64, Python) logging started 11/06/17 12:27:36


Gurobi 7.0.2 (win64, Python) logging started 11/06/17 12:28:36


Gurobi 7.0.2 (win64, Python) logging started 11/06/17 12:34:26


Gurobi 7.0.2 (win64, Python) logging started 11/06/17 12:38:53


Gurobi 7.0.2 (win64, Python) logging started 11/06/17 13:53:05


Gurobi 7.0.2 (win64, Python) logging started 11/06/17 13:59:10


Gurobi 7.0.2 (win64, Python) logging started 11/06/17 14:00:21


Gurobi 7.0.2 (win64, Python) logging started 11/06/17 14:03:46


Gurobi 7.0.2 (win64, Python) logging started 11/06/17 14:06:39


Gurobi 7.0.2 (win64, Python) logging started 11/06/17 14:09:18


Gurobi 7.0.2 (win64, Python) logging started 11/06/17 14:10:11


Gurobi 7.0.2 (win64, Python) logging started 11/06/17 14:38:10


Gurobi 7.0.2 (win64, Python) logging started 11/06/17 14:38:43


Gurobi 7.0.2 (win64, Python) logging started 11/06/17 14:45:23


Gurobi 7.0.2 (win64, Python) logging started 11/06/17 14:46:26


Gurobi 7.0.2 (win64, Python) logging started 11/06/17 15:31:34


Gurobi 7.0.2 (win64, Python) logging started 11/06/17 16:59:19


Gurobi 7.0.2 (win64, Python) logging started 11/06/17 17:11:18


Gurobi 7.0.2 (win64, Python) logging started 11/07/17 16:48:19


Gurobi 7.0.2 (win64, Python) logging started 11/07/17 18:54:13


Gurobi 7.0.2 (win64, Python) logging started 11/07/17 18:56:04


Gurobi 7.0.2 (win64, Python) logging started 11/07/17 19:00:17


Gurobi 7.0.2 (win64, Python) logging started 11/07/17 19:02:31


Gurobi 7.0.2 (win64, Python) logging started 01/16/18 14:46:39


Gurobi 7.0.2 (win64, Python) logging started 01/16/18 14:56:37


Gurobi 7.0.2 (win64, Python) logging started 01/17/18 09:56:28


Gurobi 7.0.2 (win64, Python) logging started 01/17/18 09:59:28


Gurobi 7.0.2 (win64, Python) logging started 01/17/18 10:11:16


Gurobi 7.0.2 (win64, Python) logging started 01/17/18 10:23:38


Gurobi 7.0.2 (win64, Python) logging started 01/17/18 10:29:57


Gurobi 7.0.2 (win64, Python) logging started 01/17/18 10:30:57


Gurobi 7.0.2 (win64, Python) logging started 01/17/18 10:32:32


Gurobi 7.0.2 (win64, Python) logging started 01/17/18 10:33:39


Gurobi 7.0.2 (win64, Python) logging started 01/17/18 10:34:44


Gurobi 7.0.2 (win64, Python) logging started 01/17/18 10:35:47


Gurobi 7.0.2 (win64, Python) logging started 01/17/18 10:41:37


Gurobi 7.0.2 (win64, Python) logging started 01/23/18 20:41:31


Gurobi 7.0.2 (win64, Python) logging started 01/23/18 20:43:12


Gurobi 7.0.2 (win64, Python) logging started 01/23/18 20:44:24


Gurobi 7.0.2 (win64, Python) logging started 01/23/18 20:45:09


Gurobi 7.0.2 (win64, Python) logging started 01/23/18 20:45:45


Gurobi 7.0.2 (win64, Python) logging started 01/23/18 20:47:02


Gurobi 7.0.2 (win64, Python) logging started 01/23/18 22:57:14


Gurobi 7.0.2 (win64, Python) logging started 01/23/18 22:58:55


Gurobi 7.0.2 (win64, Python) logging started 01/23/18 22:59:05


Gurobi 7.0.2 (win64, Python) logging started 01/23/18 22:59:07


Gurobi 7.0.2 (win64, Python) logging started 01/23/18 23:01:43


Gurobi 7.0.2 (win64, Python) logging started 01/23/18 23:18:59


Gurobi 7.0.2 (win64, Python) logging started 01/23/18 23:29:17


Gurobi 7.0.2 (win64, Python) logging started 01/24/18 13:20:27


Gurobi 7.0.2 (win64, Python) logging started 01/24/18 13:33:26


Gurobi 7.0.2 (win64, Python) logging started 01/24/18 13:35:27


Gurobi 7.0.2 (win64, Python) logging started 01/24/18 13:38:00


Gurobi 7.0.2 (win64, Python) logging started 01/24/18 13:38:29


Gurobi 7.0.2 (win64, Python) logging started 01/30/18 22:08:04


Gurobi 7.0.2 (win64, Python) logging started 01/30/18 22:13:03


Gurobi 7.0.2 (win64, Python) logging started 01/30/18 22:32:48


Gurobi 7.0.2 (win64, Python) logging started 01/30/18 22:33:51


Gurobi 7.0.2 (win64, Python) logging started 01/30/18 22:35:38


Gurobi 7.0.2 (win64, Python) logging started 01/30/18 22:35:43


Gurobi 7.0.2 (win64, Python) logging started 01/30/18 23:12:40


Gurobi 7.0.2 (win64, Python) logging started 01/30/18 23:13:08


Gurobi 7.0.2 (win64, Python) logging started 01/30/18 23:13:32


Gurobi 7.0.2 (win64, Python) logging started 01/30/18 23:22:14


Gurobi 7.0.2 (win64, Python) logging started 01/30/18 23:24:15


Gurobi 7.0.2 (win64, Python) logging started 01/30/18 23:24:34


Gurobi 7.0.2 (win64, Python) logging started 01/31/18 17:41:45


Gurobi 7.0.2 (win64, Python) logging started 01/31/18 17:43:22


Gurobi 7.0.2 (win64, Python) logging started 01/31/18 17:44:17


Gurobi 7.0.2 (win64, Python) logging started 01/31/18 19:38:26


Gurobi 7.0.2 (win64, Python) logging started 01/31/18 19:44:43


Gurobi 7.0.2 (win64, Python) logging started 01/31/18 19:46:09


Gurobi 7.0.2 (win64, Python) logging started 01/31/18 19:47:43


Gurobi 7.0.2 (win64, Python) logging started 01/31/18 19:49:23


Gurobi 7.0.2 (win64, Python) logging started 01/31/18 19:50:16


Gurobi 7.0.2 (win64, Python) logging started 01/31/18 19:51:43


Gurobi 7.0.2 (win64, Python) logging started 01/31/18 19:52:41


Gurobi 7.0.2 (win64, Python) logging started 01/31/18 19:54:03


Gurobi 7.0.2 (win64, Python) logging started 01/31/18 19:55:18


Gurobi 7.0.2 (win64, Python) logging started 01/31/18 19:56:01


Gurobi 7.0.2 (win64, Python) logging started 01/31/18 20:18:41


Gurobi 7.0.2 (win64, Python) logging started 01/31/18 20:19:02


Gurobi 7.0.2 (win64, Python) logging started 01/31/18 20:19:22


Gurobi 7.0.2 (win64, Python) logging started 02/10/18 08:55:08


Gurobi 7.0.2 (win64, Python) logging started 02/10/18 15:59:04


Gurobi 7.0.2 (win64, Python) logging started 02/10/18 16:01:23


Gurobi 7.0.2 (win64, Python) logging started 02/10/18 16:01:45


Gurobi 7.0.2 (win64, Python) logging started 02/10/18 16:02:17


Gurobi 7.0.2 (win64, Python) logging started 02/10/18 16:04:58


Gurobi 7.0.2 (win64, Python) logging started 02/10/18 16:06:40


Gurobi 7.0.2 (win64, Python) logging started 02/10/18 16:13:18


Gurobi 7.0.2 (win64, Python) logging started 02/10/18 18:59:50


Gurobi 7.0.2 (win64, Python) logging started 02/10/18 19:03:17


Gurobi 7.0.2 (win64, Python) logging started 02/10/18 19:03:55


Gurobi 7.0.2 (win64, Python) logging started 02/10/18 19:04:51


Gurobi 7.0.2 (win64, Python) logging started 02/10/18 19:08:10


Gurobi 7.0.2 (win64, Python) logging started 02/10/18 19:10:02


Gurobi 7.0.2 (win64, Python) logging started 02/10/18 19:10:45


Gurobi 7.0.2 (win64, Python) logging started 02/10/18 19:11:28


Gurobi 7.0.2 (win64, Python) logging started 02/10/18 19:11:57


Gurobi 7.0.2 (win64, Python) logging started 02/10/18 19:14:34


Gurobi 7.0.2 (win64, Python) logging started 02/24/18 18:05:22

